(declare-const term_to_project_onto0_integralized Int)
(declare-const term_to_project_onto_integralized Int)
(declare-const term_to_project_onto2_integralized Int)
(declare-const term_to_project_onto1_integralized Int)
(assert (exists
         ((uninterp?1?1 Int) (uninterp?2?2 Int) (uninterp?3?3 Int)
            (|r'?4?4| Int) (|q'?5?5| Int) (K?6?6 Int) (|a'?7?7| Int)
            (|b'?8?8| Int) (|b'?9?9| Int) (|a'?10?10| Int) (q?11?11 Int)
            (r?12?12 Int) (a?13?13 Int) (b?14?14 Int) (y?15?15 Int)
            (x?16?16 Int))
         (and (<= (- q?11?11) 0) (<= (- a?13?13) 0) (<= (- b?14?14) 0)
                (<= (+ (- y?15?15) 1) 0) (<= (- x?16?16) 0)
                (= (+ (- y?15?15) 1) 0)
                (= (+ (- r?12?12) x?16?16 (- q?11?11)) 0)
                (= (+ b?14?14 (- a?13?13)) 0)
                (= (+ b?14?14 (- uninterp?3?3)) 0)
                (= (+ (- r?12?12) x?16?16 (- uninterp?2?2)) 0)
                (<= (+ (- r?12?12) y?15?15) 0)
                (= (+ (- |a'?7?7|) |b'?8?8| (- y?15?15) 1) 0)
                (<= (+ K?6?6 (- |b'?8?8|) y?15?15) 0)
                (or (and (= K?6?6 0) (= (+ (- |b'?8?8|) y?15?15) 0)
                           (= (+ (- |a'?7?7|) 1) 0))
                      (and (<= (+ (- K?6?6) 1) 0)
                             (= (+ r?12?12 (- x?16?16) q?11?11) 0)
                             (= (+ (- y?15?15) 1) 0) (= (+ y?15?15 -1) 0)
                             (<= (+ (- r?12?12) (* 2 y?15?15)) 0)
                             (<= (+ (- y?15?15) 1) 0)
                             (<= (+ r?12?12 (- x?16?16)) 0)
                             (= (+ r?12?12 (- x?16?16) q?11?11) 0)
                             (= (+ (- |a'?7?7|) |b'?8?8|) 0)
                             (= (+ y?15?15 -1) 0) (<= (+ (- |a'?7?7|) 2) 0)
                             (<= (+ |a'?7?7| (- r?12?12)) 0)
                             (<= (+ r?12?12 (- x?16?16)) 0)))
                (<= (- K?6?6) 0) (<= (- q?11?11) 0) (<= (+ (- r?12?12) 1) 0)
                (<= (+ (- |a'?7?7|) 1) 0) (<= (+ (- |b'?8?8|) 1) 0)
                (<= (+ (- y?15?15) 1) 0) (<= (+ (- x?16?16) 1) 0)
                (= (+ (- y?15?15) 1) 0)
                (= (+ (- r?12?12) x?16?16 (- q?11?11)) 0)
                (= (+ (- |a'?7?7|) |b'?8?8|) 0)
                (= (+ |b'?8?8| (- uninterp?1?1)) 0)
                (= (+ (- r?12?12) x?16?16 (- uninterp?2?2)) 0)
                (<= (- r?12?12) 0) (<= (+ (* -2 |b'?8?8|) r?12?12 1) 0)
                (= (+ |b'?9?9| (- |b'?8?8|)) 0)
                (= (+ |a'?10?10| (- |a'?7?7|)) 0)
                (= (+ |r'?4?4| |b'?8?8| (- r?12?12)) 0)
                (= (+ |q'?5?5| (- |a'?7?7|) (- q?11?11)) 0)
                (<= (+ 1 (- uninterp?1?1)) 0)
                (<= (+ y?15?15 (- uninterp?1?1)) 0)
                (<= (+ |a'?7?7| (- uninterp?1?1)) 0)
                (<= (+ uninterp?1?1 (- |a'?7?7|)) 0) (<= (- uninterp?2?2) 0)
                (<= (+ q?11?11 (- uninterp?2?2)) 0)
                (<= (+ uninterp?2?2 (- q?11?11)) 0) (<= (- uninterp?3?3) 0)
                (<= (+ a?13?13 (- uninterp?3?3)) 0)
                (<= (+ uninterp?3?3 (- a?13?13)) 0)
                (= (+ term_to_project_onto2_integralized
                        (- (+ |q'?5?5| (- q?11?11)))) 0)
                (= (+ term_to_project_onto1_integralized
                        (- (+ |r'?4?4| (- r?12?12)))) 0)
                (= (+ term_to_project_onto0_integralized
                        (- (+ |a'?10?10| (- a?13?13)))) 0)
                (= (+ term_to_project_onto_integralized
                        (- (+ |b'?9?9| (- b?14?14)))) 0))))